Route 1: 0 19 65 61 23 3 86 7 0
Route 2: 0 43 11 24 29 82 85 100 68 78 32 0
Route 3: 0 51 27 70 66 36 48 47 28 71 14 0
Route 4: 0 5 35 87 62 67 22 99 59 74 0
Route 5: 0 49 38 76 94 80 96 33 39 20 34 13 0
Route 6: 0 17 98 25 89 12 69 18 54 53 4 55 0
Route 7: 0 46 1 77 15 2 79 21 37 0
Route 8: 0 72 60 31 45 83 6 50 92 56 9 0
Route 9: 0 52 44 30 81 16 26 93 0
Route 10: 0 97 91 40 64 63 88 10 95 42 73 57 0
Route 11: 0 8 41 90 84 58 75 0
